166220
1,58,24,102,14,47,61,103,35,75,32,7,18,49,37,70,94,78,96,60,3,101,38,105,104,67,95,54,71,36,41,11,39,73,48,85,53,84,33,2,82,51,100,99,68,50,26,34,9,83,57,23,92,80,89,93,12,19,42,81,72,45,25,62,22,86,46,77,6,69,88,13,31,98,106,97,8,65,52,5,55,29,30,40,56,20,16,64,90,17,21,63,4,15,91,79,43,74,76,87,44,59,66,28,27,10